(set-logic QF_S)
(declare-const x String)
(assert (str.in.re x (re.inter (re.* (re.union (re.range "\u{00}" "\u{09}") (re.range "\u{0b}" "\u{0c}") (re.range "\u{0e}" "\u{84}") (re.range "\u{86}" "\u{ff}")) )  (re.++ (re.* (re.union (re.range "\u{00}" "\u{09}") (re.range "\u{0b}" "\u{0c}") (re.range "\u{0e}" "\u{84}") (re.range "\u{86}" "\u{ff}")) ) (re.++  (re.union  (re.++  (str.to.re "\u{74}") (re.++  (str.to.re "\u{63}") (re.++  (str.to.re "\u{6c}") (re.++  (str.to.re "\u{73}")  (str.to.re "\u{68}"))))) (re.union  (re.++  (str.to.re "\u{77}") (re.++  (str.to.re "\u{69}") (re.++  (str.to.re "\u{73}")  (str.to.re "\u{68}"))))  (re.++  (str.to.re "\u{65}") (re.++  (str.to.re "\u{78}") (re.++  (str.to.re "\u{70}") (re.++  (str.to.re "\u{65}") (re.++  (str.to.re "\u{63}")  (str.to.re "\u{74}")))))))) (re.* (re.union (re.range "\u{00}" "\u{09}") (re.range "\u{0b}" "\u{0c}") (re.range "\u{0e}" "\u{84}") (re.range "\u{86}" "\u{ff}")) ))) (re.* (re.union (re.range "\u{00}" "\u{09}") (re.range "\u{0b}" "\u{0c}") (re.range "\u{0e}" "\u{84}") (re.range "\u{86}" "\u{ff}")) ) )))
(check-sat)
(get-model)